peakDumbCharging = 25900; 
Machine = anon_enum(16); 
machineSpeed = [3700,3700,3700,3700,3700,3700,3700,3700,3700,3700,3700,3700,3700,3700,3700,3700]; 
machineLoad = [3700,3700,3700,3700,3700,3700,3700,3700,3700,3700,3700,3700,3700,3700,3700,3700]; 
Car = anon_enum(27); 
demandCar = [5840,6360,920,12040,7920,2920,2560,12640,6120,3840,17000,4520,880,5120,10360,19560,1360,6320,25480,6240,11400,5720,3160,3280,11040,15200,32120]; 
arrivalCar = [80,74,73,72,70,69,69,69,68,68,67,67,65,65,60,60,56,56,53,52,49,48,46,43,43,36,34]; 
departureCar = [83,77,74,76,73,72,71,74,73,70,73,69,66,67,64,68,57,61,63,60,53,51,48,46,49,43,62]; 
